CPXPARAM_TimeLimit                               3600
CPXPARAM_Read_DataCheck                          1
CPXPARAM_MIP_Limits_Solutions                    1
Tried aggregator 1 time.
MIP Presolve eliminated 1402 rows and 0 columns.
MIP Presolve modified 2567 coefficients.
Reduced MIP has 70133 rows, 22276 columns, and 251554 nonzeros.
Reduced MIP has 1575 binaries, 0 generals, 0 SOSs, and 0 indicators.
Presolve time = 0.06 sec. (89.34 ticks)
Found incumbent of value 9350.000000 after 0.11 sec. (156.02 ticks)

Root node processing (before b&c):
  Real time             =    0.11 sec. (157.11 ticks)
Parallel b&c, 8 threads:
  Real time             =    0.00 sec. (0.00 ticks)
  Sync time (average)   =    0.00 sec.
  Wait time (average)   =    0.00 sec.
                          ------------
Total (root+branch&cut) =    0.11 sec. (157.11 ticks)
